Copyright (C) 2013-2015, Filipe Brandao
Build (method = -2)
  #dp: 370
  Step-3' Graph: 33 vertices and 163 arcs (0.00s)
  Step-4' Graph: 22 vertices and 141 arcs (0.00s)
  #V4/#V3 = 0.67
  #A4/#A3 = 0.87
Ready! (0.00s)
Optimize a model with 56 rows, 142 columns and 387 nonzeros
Found heuristic solution: objective 40
Presolve removed 23 rows and 25 columns
Presolve time: 0.00s
Presolved: 33 rows, 117 columns, 293 nonzeros
Variable types: 0 continuous, 117 integer (75 binary)
Optimize a model with 33 rows, 117 columns and 293 nonzeros
Presolved: 33 rows, 117 columns, 293 nonzeros

Root barrier log...

Ordering time: 0.00s

Barrier statistics:
 AA' NZ     : 1.460e+02
 Factor NZ  : 4.010e+02
 Factor Ops : 5.769e+03 (less than 1 second per iteration)
 Threads    : 1

                  Objective                Residual
Iter       Primal          Dual         Primal    Dual     Compl     Time
   0   2.90029819e+02 -2.51926641e+02  1.94e+02 1.97e-01  7.09e+00     0s
   1   7.98354724e+01 -6.58863303e+01  2.23e+01 3.33e-16  1.05e+00     0s
   2   4.21112376e+01  1.71763584e+01  9.27e-01 2.22e-16  1.15e-01     0s
   3   3.73970487e+01  2.35788779e+01  8.80e-02 1.60e-16  5.88e-02     0s
   4   3.55533612e+01  3.31200786e+01  1.27e-02 1.88e-16  1.03e-02     0s
   5   3.45733561e+01  3.42707109e+01  8.83e-04 2.22e-16  1.28e-03     0s
   6   3.45001353e+01  3.44997924e+01  1.85e-06 2.52e-16  1.45e-06     0s
   7   3.45000000e+01  3.45000000e+01  1.86e-12 2.02e-16  1.46e-12     0s

Barrier solved model in 7 iterations and 0.00 seconds
Optimal objective 3.45000000e+01


Root relaxation: objective 3.450000e+01, 34 iterations, 0.00 seconds

    Nodes    |    Current Node    |     Objective Bounds      |     Work
 Expl Unexpl |  Obj  Depth IntInf | Incumbent    BestBd   Gap | It/Node Time

     0     0   34.50000    0    2   40.00000   34.50000  13.8%     -    0s
H    0     0                      35.0000000   34.50000  1.43%     -    0s

Explored 0 nodes (40 simplex iterations) in 0.00 seconds
Thread count was 1 (of 4 available processors)

Optimal solution found (tolerance 0.00e+00)
Best objective 3.500000000000e+01, best bound 3.500000000000e+01, gap 0.0%
Preprocessing time: 0.00 seconds
Gurobi run time: 0.00 seconds
Total run time: 0.00 seconds
Objective: 35
Solution:
1 x [i=1]
1 x [i=2]
1 x [i=3]
1 x [i=4]
1 x [i=5, i=34]
1 x [i=6, i=34]
2 x [i=7, i=33]
3 x [i=8]
1 x [i=9, i=31]
1 x [i=10, i=29]
1 x [i=10, i=30]
1 x [i=11, i=32]
1 x [i=12, i=28]
4 x [i=13]
3 x [i=14]
3 x [i=15]
1 x [i=16, i=27]
2 x [i=17]
1 x [i=18, i=25]
1 x [i=19, i=26]
1 x [i=20, i=23]
1 x [i=21, i=21]
1 x [i=22, i=23]
1 x [i=24]
